outputs/case_173.model.txt
insufficient_measures_executed = False
severely_insufficient_measures_executed = False
capital_adequacy_ratio = 200
significantly_insufficient_measures_executed = False
capital_level_lower_priority = True
net_worth_ratio = 3/2
net_worth = 0
capital_insufficient = False
penalty = False
capital_adequate = True
capital_significantly_insufficient = False
capital_level_consistent = True
capital_severely_insufficient_measures_executed = False
capital_insufficient_measures_executed = False
capital_significantly_insufficient_measures_executed = False
capital_severely_insufficient = False
capital_level = 1